Problem:    e1
Rows:       6
Columns:    2
Non-zeros:  8
Status:     OPTIMAL
Objective:  lucro = 192000 (MAXimum)

   No.   Row name   St   Activity     Lower bound   Upper bound    Marginal
------ ------------ -- ------------- ------------- ------------- -------------
     1 lucro        B         192000                             
     2 c1           NU          6000                        6000             4 
     3 c2           B           1400                        4000 
     4 c3           NU            40                          40          4200 
     5 c4           B           6000            -0               
     6 c5           B           1400            -0               

   No. Column name  St   Activity     Lower bound   Upper bound    Marginal
------ ------------ -- ------------- ------------- ------------- -------------
     1 m            B           6000                             
     2 n            B           1400                             

Karush-Kuhn-Tucker optimality conditions:

KKT.PE: max.abs.err = 0.00e+00 on row 0
        max.rel.err = 0.00e+00 on row 0
        High quality

KKT.PB: max.abs.err = 0.00e+00 on row 0
        max.rel.err = 0.00e+00 on row 0
        High quality

KKT.DE: max.abs.err = 0.00e+00 on column 0
        max.rel.err = 0.00e+00 on column 0
        High quality

KKT.DB: max.abs.err = 0.00e+00 on row 0
        max.rel.err = 0.00e+00 on row 0
        High quality

End of output
